c DIMACS Generated directly from Feature Model with Cross-Tree Constraints
p cnf 64 196
1 0
-2 1 0
-1 2 0
-3 2 0
-4 2 0
-5 1 0
-1 5 0
-6 1 0
-1 6 0
-7 1 0
-1 7 0
-8 1 0
-1 8 0
-9 1 0
-1 9 0
-10 1 0
-1 10 0
-11 1 0
-1 11 0
-12 1 0
-1 12 0
-13 1 0
-1 13 0
-14 1 0
-1 14 0
-15 14 0
-14 15 0
-16 14 0
-14 16 0
-17 14 0
-14 17 0
-18 14 0
-14 18 0
-19 1 0
-1 19 0
-20 1 0
-1 20 0
-21 1 0
-1 21 0
-22 1 0
-1 22 0
-23 1 0
-1 23 0
-24 1 0
-1 24 0
-25 1 0
-1 25 0
-26 1 0
-1 26 0
-27 1 0
-28 27 0
-29 27 0
-30 27 0
-31 27 0
-32 27 0
-33 27 0
-34 27 0
-35 27 0
-36 27 0
-37 27 0
-38 1 0
-1 38 0
-39 1 0
-1 39 0
-40 39 0
-41 39 0
-42 39 0
-43 39 0
-44 1 0
-1 44 0
-45 44 0
-46 44 0
-47 44 0
-48 1 0
-49 48 0
-50 48 0
-51 48 0
-52 48 0
-53 48 0
-54 48 0
-55 1 0
-1 55 0
-56 55 0
-57 55 0
-58 55 0
-59 55 0
-60 55 0
-61 55 0
-62 55 0
-63 55 0
-64 55 0
-2 3 4 0
-48 49 50 51 52 53 54 0
-55 56 57 58 59 60 61 62 63 64 0
-1 27 0
-27 28 29 30 31 32 33 34 35 36 37 0
-28 -29 0
-28 -30 0
-28 -31 0
-28 -32 0
-28 -33 0
-28 -34 0
-28 -35 0
-28 -36 0
-28 -37 0
-29 -30 0
-29 -31 0
-29 -32 0
-29 -33 0
-29 -34 0
-29 -35 0
-29 -36 0
-29 -37 0
-30 -31 0
-30 -32 0
-30 -33 0
-30 -34 0
-30 -35 0
-30 -36 0
-30 -37 0
-31 -32 0
-31 -33 0
-31 -34 0
-31 -35 0
-31 -36 0
-31 -37 0
-32 -33 0
-32 -34 0
-32 -35 0
-32 -36 0
-32 -37 0
-33 -34 0
-33 -35 0
-33 -36 0
-33 -37 0
-34 -35 0
-34 -36 0
-34 -37 0
-35 -36 0
-35 -37 0
-36 -37 0
-49 28 0
-50 28 0
-51 28 0
-52 28 0
-53 28 0
-54 28 0
-49 56 57 0
-50 56 0
-51 56 0
-52 57 0
-53 57 0
-54 56 0
-40 -41 -42 -43 28 0
-28 40 0
-28 41 0
-28 42 0
-28 43 0
-40 41 0
-41 40 0
-40 42 0
-42 40 0
-40 43 0
-43 40 0
-46 -45 -47 33 29 32 31 30 34 36 35 37 0
-33 46 0
-33 45 0
-33 47 0
-29 46 0
-29 45 0
-29 47 0
-32 46 0
-32 45 0
-32 47 0
-31 46 0
-31 45 0
-31 47 0
-30 46 0
-30 45 0
-30 47 0
-34 46 0
-34 45 0
-34 47 0
-36 46 0
-36 45 0
-36 47 0
-35 46 0
-35 45 0
-35 47 0
-37 46 0
-37 45 0
-37 47 0
-45 46 0
-46 45 0
-45 47 0
-47 45 0
